% Lawrence 15x5 instance (Table 4, instance 2); also called (setg2) or (G2)
n_jobs = 15;
n_machines = 5;
machine = [|1, 5, 2, 4, 3
           |1, 2, 5, 4, 3
           |4, 1, 3, 2, 5
           |1, 2, 5, 4, 3
           |4, 2, 1, 3, 5
           |2, 3, 1, 5, 4
           |3, 2, 1, 5, 4
           |3, 4, 5, 1, 2
           |5, 1, 3, 2, 4
           |5, 1, 2, 4, 3
           |5, 1, 2, 3, 4
           |4, 3, 1, 5, 2
           |5, 2, 1, 3, 4
           |5, 1, 4, 3, 2
           |5, 2, 1, 3, 4|];
duration = [|47, 57, 71, 96, 14
            |75, 60, 22, 79, 65
            |32, 33, 69, 31, 58
            |44, 34, 51, 58, 47
            |29, 44, 62, 17, 8
            |15, 40, 97, 38, 66
            |58, 39, 57, 20, 50
            |57, 32, 87, 63, 21
            |56, 84, 90, 85, 61
            |15, 20, 67, 30, 70
            |84, 82, 23, 45, 38
            |50, 21, 18, 41, 29
            |16, 52, 52, 38, 54
            |37, 54, 57, 74, 62
            |57, 61, 81, 30, 68|];
deadline = [1109, 702, 1020, 827, 1086, 795, 708, 1029, 758, 683, 702, 824, 824, 994, 1090];
penalty = [3, 47, 40, 68, 73, 52, 20, 85, 47, 37, 32, 17, 41, 88, 23];